Version identifier: 12.10.0.0 | 2019-11-26 | 843d4de
CPXPARAM_WorkMem                                 28672
Tried aggregator 2 times.
Aggregator did 30 substitutions.
Reduced MIP has 103 rows, 120 columns, and 480 nonzeros.
Reduced MIP has 120 binaries, 0 generals, 0 SOSs, and 0 indicators.
Presolve time = 0,00 sec. (0,46 ticks)
Found incumbent of value 528,000000 after 0,00 sec. (0,74 ticks)
Probing time = 0,00 sec. (0,17 ticks)
Tried aggregator 1 time.
Detecting symmetries...
MIP Presolve eliminated 21 rows and 0 columns.
MIP Presolve added 42 rows and 0 columns.
Reduced MIP has 124 rows, 120 columns, and 501 nonzeros.
Reduced MIP has 120 binaries, 0 generals, 0 SOSs, and 0 indicators.
Presolve time = 0,00 sec. (0,61 ticks)
Probing time = 0,00 sec. (0,17 ticks)
Clique table members: 340.
MIP emphasis: balance optimality and feasibility.
MIP search method: dynamic search.
Parallel mode: deterministic, using up to 16 threads.
Root relaxation solution time = 0,00 sec. (0,31 ticks)

        Nodes                                         Cuts/
   Node  Left     Objective  IInf  Best Integer    Best Bound    ItCnt     Gap

*     0+    0                          528,0000        0,0000           100,00%
*     0+    0                          328,0000        0,0000           100,00%
*     0+    0                          326,0000        0,0000           100,00%
*     0+    0                          323,0000        0,0000           100,00%
*     0+    0                          310,0000        0,0000           100,00%
      0     0      176,0000    76      310,0000      176,0000       40   43,23%
      0     0      176,0000    76      310,0000     Cuts: 103       87   43,23%
      0     0      177,2381    76      310,0000     Cuts: 131      133   42,83%
      0     0      178,3021    76      310,0000     Cuts: 126      145   42,48%
      0     0      178,7739    76      310,0000      Cuts: 43      152   42,33%
      0     0      179,1155    76      310,0000       Cuts: 6      168   42,22%
      0     0      214,3100    76      310,0000     Cuts: 100      257   30,87%
      0     0      219,6614    76      310,0000      Cuts: 76      285   29,14%
      0     0      219,9637    76      310,0000       Cuts: 6      290   29,04%
      0     0      221,0426    76      310,0000       Cuts: 8      302   28,70%
      0     0      221,8778    76      310,0000   ZeroHalf: 7      315   28,43%
      0     0      222,2370    76      310,0000   ZeroHalf: 4      324   28,31%
      0     0      222,4430    76      310,0000   ZeroHalf: 7      336   28,24%
      0     0      223,1454    76      310,0000      Cuts: 12      358   28,02%
      0     0      223,5647    76      310,0000   ZeroHalf: 8      372   27,88%
      0     0      223,6484    76      310,0000   ZeroHalf: 8      396   27,86%
      0     0      223,7031    76      310,0000      Cuts: 37      414   27,84%
      0     0      223,7659    76      310,0000   ZeroHalf: 6      423   27,82%
      0     0      223,9931    76      310,0000      Cuts: 11      445   27,74%
      0     0      224,1326    76      310,0000      Cuts: 30      459   27,70%
      0     0      224,2363    76      310,0000  ZeroHalf: 17      472   27,67%
      0     0      224,4309    76      310,0000   ZeroHalf: 6      484   27,60%
      0     0      224,5834    76      310,0000      Cuts: 11      503   27,55%
      0     0      224,8002    76      310,0000      Cuts: 37      518   27,48%
      0     0      224,9134    76      310,0000   ZeroHalf: 5      535   27,45%
      0     0      224,9396    76      310,0000       Cuts: 7      549   27,44%
*     0+    0                          306,0000      224,9396            26,49%
      0     2      224,9396   104      306,0000      224,9396      549   26,49%
Elapsed time = 0,15 sec. (76,69 ticks, tree = 0,02 MB, solutions = 6)

Clique cuts applied:  48
Cover cuts applied:  71
Mixed integer rounding cuts applied:  19
Zero-half cuts applied:  27
Gomory fractional cuts applied:  2

Root node processing (before b&c):
  Real time             =    0,15 sec. (76,49 ticks)
Parallel b&c, 16 threads:
  Real time             =    0,02 sec. (7,56 ticks)
  Sync time (average)   =    0,01 sec.
  Wait time (average)   =    0,00 sec.
                          ------------
Total (root+branch&cut) =    0,17 sec. (84,05 ticks)
